WARNING: for repeatability, setting FPU to use double precision
============================[ Problem Statistics ]=============================
|                                                                             |
|  Number of variables:           100                                         |
|  Number of clauses:             449                                         |
|  Parse time:                   0.00 s                                       |
|  Eliminated clauses:           0.00 Mb                                      |
|  Simplification time:          0.00 s                                       |
|                                                                             |
============================[ Search Statistics ]==============================
| Conflicts |          ORIGINAL         |          LEARNT          | Progress |
|           |    Vars  Clauses Literals |    Limit  Clauses Lit/Cl |          |
===============================================================================
|       100 |      97      442     1345 |      162      100      6 |  0.020 % |
|       250 |      97      442     1345 |      178      165      6 |  0.130 % |
===============================================================================
restarts              : 3
conflicts             : 326            (104320 /sec)
decisions             : 396            (0.00 % random) (126720 /sec)
propagations          : 7250           (2320000 /sec)
conflict literals     : 1870           (22.60 % deleted)
Memory used           : 13.00 MB
CPU time              : 0.003125 s

SATISFIABLE
